COMUNI = {
	umbertide,
	terni,
	todi,
	orvieto,
	gualdo_tardino,
	gubbio,
	corciano,
	magione,
	perugia,
	assisi,
	foligno,
	castiglione_del_lago,
	spoleto,
	citta_di_castello,
	amelia,
	marsciano,
	narni,
	san_giustino,
	bastia_umbra,
};

NUMERO_COMUNI = 19;

ABITANTI_PER_COMUNE = [16, 106, 15, 19, 14, 30, 21, 14, 161, 27, 55, 15, 36, 38, 11, 18, 17, 11, 21];

STRADE_TRA_COMUNI = [|
	false, false, false, false, false, true, false, false, true, false, false, false, false, true, false, false, false, false, false |
	false, false, false, false, false, false, false, false, false, false, false, false, true, false, false, false, true, false, false |
	false, false, false, true, false, false, false, false, false, false, false, false, false, false, true, true, false, false, false |
	false, false, true, false, false, false, false, false, false, false, false, false, false, false, false, false, false, false, false |
	false, false, false, false, false, true, false, false, false, false, false, false, false, false, false, false, false, false, false |
	true, false, false, false, true, false, false, false, false, false, false, false, false, false, false, false, false, false, false |
	false, false, false, false, false, false, false, true, true, false, false, false, false, false, false, false, false, false, false |
	false, false, false, false, false, false, true, false, false, false, false, true, false, false, false, false, false, false, false |
	true, false, false, false, false, false, true, false, false, false, false, false, false, false, false, true, false, false, true |
	false, false, false, false, false, false, false, false, false, false, true, false, false, false, false, false, false, false, true |
	false, false, false, false, false, false, false, false, false, true, false, false, false, false, false, false, false, false, false |
	false, false, false, false, false, false, false, true, false, false, false, false, false, false, false, false, false, false, false |
	false, true, false, false, false, false, false, false, false, false, false, false, false, false, false, false, false, false, false |
	true, false, false, false, false, false, false, false, false, false, false, false, false, false, false, false, false, true, false |
	false, false, true, false, false, false, false, false, false, false, false, false, false, false, false, false, true, false, false |
	false, false, true, false, false, false, false, false, true, false, false, false, false, false, false, false, false, false, false |
	false, true, false, false, false, false, false, false, false, false, false, false, false, false, true, false, false, false, false |
	false, false, false, false, false, false, false, false, false, false, false, false, false, true, false, false, false, false, false |
	false, false, false, false, false, false, false, false, true, true, false, false, false, false, false, false, false, false, false |
|];

RICHIESTE = [|
	1, 4, 2, 0, 6 |
	17, 3, 7, 6, 13 |
	30, 19, 14, 9, 4 |
	4, 12, 12, 12, 6 |
	17, 4, 3, 13, 14 |
	4, 17, 7, 28, 15 |
	6, 1, 8, 39, 16 |
	3, 20, 6, 5, 35 |
	11, 37, 31, 2, 9 |
	9, 2, 3, 7, 16 |
	8, 8, 5, 0, 13 |
	3, 7, 1, 18, 21 |
	43, 3, 0, 0, 13 |
	3, 6, 3, 9, 2 |
	2, 26, 20, 4, 2 |
	3, 25, 8, 2, 6 |
	3, 1, 1, 5, 1 |
	7, 2, 10, 28, 28 |
	4, 8, 3, 1, 15 |
|];
